sat
(
(define-fun sym1669 () String "G")
(define-fun sym1985 () String "A")
(define-fun sym1028 () String "G")
(define-fun sym1896 () String "Q")
(define-fun sym1453 () String "G")
(define-fun sym1244 () String "G")
(define-fun sym205 () String "Y")
(define-fun sym547 () String "G")
(define-fun sym812 () String "G")
(define-fun sym161 () String "A")
)
